Route #1: 34 64 96 48 26 47 38
Route #2: 25 65 78 42 28
Route #3: 89 98 99 62 71
Route #4: 8 17
Route #5: 18 10 39
Route #6: 24 95 73 53 33 32
Route #7: 20 41 22 15
Route #8: 59 60 82
Route #9: 63 77 3
Route #10: 86 9 92
Route #11: 50 91 52
Route #12: 87 37 6 49 14
Route #13: 100 61 23
Route #14: 80 94 56 21
Route #15: 7 2 45 43 29 36 72 57
Route #16: 35 46 31
Route #17: 19 97 27
Route #18: 30 85 11 79
Route #19: 44 67 88 40
Route #20: 5 12 58
Route #21: 93 75
Route #22: 81 51 83
Route #23: 68 90 84 66
Route #24: 1 70 54
Route #25: 76 55 16 69
Route #26: 74 13 4
Cost 27591.0000
Time 16.0010